src/asp/benchmarks/medium4.lp
citta(magione).
citta(san_giustino).
citta(castiglione_del_lago).
citta(bastia_umbra).
citta(foligno).
citta(corciano).

richiesta(magione, strade, 3).
richiesta(magione, fiumi, 29).
richiesta(magione, scuole, 8).
richiesta(magione, parchi, 30).
richiesta(magione, energia, 43).

richiesta(san_giustino, strade, 24).
richiesta(san_giustino, fiumi, 81).
richiesta(san_giustino, scuole, 31).
richiesta(san_giustino, parchi, 67).
richiesta(san_giustino, energia, 22).

richiesta(castiglione_del_lago, strade, 21).
richiesta(castiglione_del_lago, fiumi, 118).
richiesta(castiglione_del_lago, scuole, 9).
richiesta(castiglione_del_lago, parchi, 10).
richiesta(castiglione_del_lago, energia, 36).

richiesta(bastia_umbra, strade, 67).
richiesta(bastia_umbra, fiumi, 14).
richiesta(bastia_umbra, scuole, 8).
richiesta(bastia_umbra, parchi, 67).
richiesta(bastia_umbra, energia, 18).

richiesta(foligno, strade, 56).
richiesta(foligno, fiumi, 23).
richiesta(foligno, scuole, 13).
richiesta(foligno, parchi, 30).
richiesta(foligno, energia, 19).

richiesta(corciano, strade, 0).
richiesta(corciano, fiumi, 16).
richiesta(corciano, scuole, 0).
richiesta(corciano, parchi, 83).
richiesta(corciano, energia, 37).

